p tw 102 111
1 2
2 15
3 6
4 5
6 7
6 14
7 8
8 9
8 36
9 10
10 11
10 74
11 100
12 13
13 14
14 16
15 26
16 17
17 18
18 19
19 20
20 21
20 22
21 4
22 23
23 24
24 25
25 27
26 37
27 28
28 29
29 30
30 31
30 34
31 32
32 33
33 4
34 35
35 36
36 38
37 48
38 39
39 40
40 41
41 42
42 43
42 44
43 4
44 45
45 46
46 47
47 49
47 52
48 59
49 50
50 51
51 4
52 53
53 54
54 55
55 56
56 57
57 58
58 60
59 70
60 61
61 62
62 63
63 64
64 65
65 66
66 67
67 68
68 69
69 71
70 81
71 72
72 73
73 74
74 75
75 76
76 77
77 78
78 79
79 80
79 82
80 4
81 92
82 83
83 84
84 85
85 86
86 87
87 88
88 89
89 90
89 72
90 91
91 93
92 3
92 12
93 94
94 95
95 96
96 97
97 98
98 99
99 72
100 101
101 102
102 4
